
Gurobi 12.0.2 (win64) logging started Wed Nov 19 16:47:41 2025

Set parameter LogFile to value "C:\Ioana\_uni\honours\slp\algorithm\Main_files\results\paracetamol_respiration_improved\Task_002_Sample005_irr_gurobi.log"
Gurobi Optimizer version 12.0.2 build v12.0.2rc0 (win64 - Windows 11.0 (26100.2))

CPU model: Intel(R) Core(TM) Ultra 5 125H, instruction set [SSE2|AVX|AVX2]
Thread count: 14 physical cores, 18 logical processors, using up to 18 threads

Non-default parameters:
TimeLimit  2200

Optimize a model with 47236 rows, 34509 columns and 146719 nonzeros
Model fingerprint: 0x243db10a
Variable types: 17260 continuous, 17249 integer (17249 binary)
Coefficient statistics:
  Matrix range     [1e-04, 8e+04]
  Objective range  [1e-04, 9e-01]
  Bounds range     [1e+00, 1e+03]
  RHS range        [1e+00, 1e+00]
Presolve removed 30788 rows and 21546 columns
Presolve time: 0.49s
Presolved: 16448 rows, 12963 columns, 54687 nonzeros
Variable types: 6419 continuous, 6544 integer (6544 binary)

Root relaxation: objective 7.140814e-05, 1549 iterations, 0.10 seconds (0.14 work units)

    Nodes    |    Current Node    |     Objective Bounds      |     Work
 Expl Unexpl |  Obj  Depth IntInf | Incumbent    BestBd   Gap | It/Node Time

     0     0    0.00007    0    9          -    0.00007      -     -    0s
H    0     0                       0.1343955    0.00007   100%     -    0s
     0     0    0.04694    0   13    0.13440    0.04694  65.1%     -    1s
     0     0    0.04694    0    9    0.13440    0.04694  65.1%     -    1s
     0     0    0.10351    0    4    0.13440    0.10351  23.0%     -    1s
     0     0    0.13440    0    7    0.13440    0.13440  0.00%     -    1s

Cutting planes:
  Learned: 1
  Implied bound: 1
  MIR: 2
  Flow cover: 5

Explored 1 nodes (2822 simplex iterations) in 1.43 seconds (1.07 work units)
Thread count was 18 (of 18 available processors)

Solution count 1: 0.134396 

Optimal solution found (tolerance 1.00e-04)
Best objective 1.343955073053e-01, best bound 1.343955073053e-01, gap 0.0000%
